p cnf 732 533
e 460 459 469 473 485 481 477 490 489 503 502 508 507 506 510 509 522 521 518 517 514 513 526 525 543 542 541 547 546 545 550 549 548 553 552 551 565 564 563 561 560 559 557 556 555 568 567 589 588 587 586 592 591 590 595 594 593 598 597 596 602 601 600 599 0
r 0.078 461 465 492 491 497 496 495 499 498 529 528 527 533 532 531 536 535 534 539 538 537 572 571 570 569 575 574 573 578 577 576 581 580 579 585 584 583 582 0
e 603 604 605 606 607 608 609 610 611 612 613 614 615 616 617 618 619 620 621 622 623 624 625 626 627 628 629 630 631 632 633 634 635 636 637 638 639 640 641 642 643 644 645 646 647 648 649 650 651 652 653 654 655 656 657 658 659 660 661 662 663 664 665 666 667 668 669 670 671 672 673 674 675 676 677 678 679 680 681 682 683 684 685 686 687 688 689 690 691 692 693 694 695 696 697 698 699 700 701 702 703 704 705 706 707 708 709 710 711 712 713 714 715 716 717 718 719 720 721 722 723 724 725 726 727 728 729 730 731 732 0
731 732 0
576 -732 -721 -702 -699 -690 -687 -685 -683 -682 -570 -564 0
570 -732 -721 -702 -699 -690 -687 -685 -683 -682 -576 -564 0
564 570 576 -732 -721 -702 -699 -690 -687 -685 -683 -682 0
564 -732 -721 -702 -699 -690 -687 -685 -683 -682 -576 -570 0
576 -732 -721 -702 -699 -690 -687 -685 -683 -681 -560 -556 0
556 560 576 -732 -721 -702 -699 -690 -687 -685 -683 -681 0
560 -732 -721 -702 -699 -690 -687 -685 -683 -681 -576 -556 0
556 -732 -721 -702 -699 -690 -687 -685 -683 -681 -576 -560 0
681 682 -732 -721 -702 -699 -690 -687 -685 -683 0
560 577 -732 -721 -702 -699 -690 -687 -685 -684 0
556 577 -732 -721 -702 -699 -690 -687 -685 -684 0
-732 -721 -702 -699 -690 -687 -685 -684 -577 -560 -556 0
683 684 -732 -721 -702 -699 -690 -687 -685 0
570 578 -732 -721 -702 -699 -690 -687 -686 0
576 578 -732 -721 -702 -699 -690 -687 -686 0
-732 -721 -702 -699 -690 -687 -686 -578 -576 -570 0
685 686 -732 -721 -702 -699 -690 -687 0
571 577 578 -732 -721 -702 -699 -690 -688 0
-732 -721 -702 -699 -690 -688 -578 -571 0
-732 -721 -702 -699 -690 -688 -577 -571 0
687 688 -732 -721 -702 -699 -690 0
679 680 -732 -721 -702 -699 -689 0
-732 -721 -702 -699 -689 -680 -574 -570 0
-732 -721 -702 -699 -689 -680 -575 -570 0
570 574 575 -732 -721 -702 -699 -689 -680 0
677 678 -732 -721 -702 -699 -689 -679 0
-732 -721 -702 -699 -689 -679 -678 -575 -573 -569 0
573 575 -732 -721 -702 -699 -689 -679 -678 0
569 575 -732 -721 -702 -699 -689 -679 -678 0
675 676 -732 -721 -702 -699 -689 -679 -677 0
-732 -721 -702 -699 -689 -679 -677 -676 -574 -559 -555 0
555 574 -732 -721 -702 -699 -689 -679 -677 -676 0
559 574 -732 -721 -702 -699 -689 -679 -677 -676 0
673 674 -732 -721 -702 -699 -689 -679 -677 -675 0
555 -732 -721 -702 -699 -689 -679 -677 -675 -673 -573 -559 0
559 -732 -721 -702 -699 -689 -679 -677 -675 -673 -573 -555 0
555 559 573 -732 -721 -702 -699 -689 -679 -677 -675 -673 0
573 -732 -721 -702 -699 -689 -679 -677 -675 -673 -559 -555 0
563 -732 -721 -702 -699 -689 -679 -677 -675 -674 -573 -569 0
563 569 573 -732 -721 -702 -699 -689 -679 -677 -675 -674 0
569 -732 -721 -702 -699 -689 -679 -677 -675 -674 -573 -563 0
573 -732 -721 -702 -699 -689 -679 -677 -675 -674 -569 -563 0
689 690 -732 -721 -702 -699 0
697 698 -732 -721 -702 -700 0
-732 -721 -702 -700 -698 -580 -572 0
-732 -721 -702 -700 -698 -581 -572 0
572 580 581 -732 -721 -702 -700 -698 0
695 696 -732 -721 -702 -700 -697 0
-732 -721 -702 -700 -697 -696 -581 -579 -571 0
579 581 -732 -721 -702 -700 -697 -696 0
571 581 -732 -721 -702 -700 -697 -696 0
693 694 -732 -721 -702 -700 -697 -695 0
-732 -721 -702 -700 -697 -695 -694 -580 -561 -557 0
557 580 -732 -721 -702 -700 -697 -695 -694 0
561 580 -732 -721 -702 -700 -697 -695 -694 0
691 692 -732 -721 -702 -700 -697 -695 -693 0
557 -732 -721 -702 -700 -697 -695 -693 -691 -579 -561 0
561 -732 -721 -702 -700 -697 -695 -693 -691 -579 -557 0
557 561 579 -732 -721 -702 -700 -697 -695 -693 -691 0
579 -732 -721 -702 -700 -697 -695 -693 -691 -561 -557 0
565 -732 -721 -702 -700 -697 -695 -693 -692 -579 -571 0
565 571 579 -732 -721 -702 -700 -697 -695 -693 -692 0
571 -732 -721 -702 -700 -697 -695 -693 -692 -579 -565 0
579 -732 -721 -702 -700 -697 -695 -693 -692 -571 -565 0
699 700 -732 -721 -702 0
567 568 569 572 -732 -721 -701 0
567 569 -732 -721 -701 -572 -568 0
568 572 -732 -721 -701 -569 -567 0
-732 -721 -701 -572 -569 -568 -567 0
701 702 -732 -721 0
719 720 -732 -722 0
-732 -722 -719 -585 -582 -568 -567 0
568 585 -732 -722 -719 -582 -567 0
567 582 -732 -722 -719 -585 -568 0
567 568 582 585 -732 -722 -719 0
717 718 -732 -722 -720 0
-732 -722 -720 -718 -716 -585 -561 -557 0
-732 -722 -720 -718 -716 -585 -584 -561 0
-732 -722 -720 -718 -716 -585 -584 -557 0
557 561 585 -732 -722 -720 -718 -716 -714 0
561 584 585 -732 -722 -720 -718 -716 -714 0
557 584 585 -732 -722 -720 -718 -716 -714 0
584 585 -732 -722 -720 -718 -716 -714 0
561 585 -732 -722 -720 -718 -716 -713 0
557 585 -732 -722 -720 -718 -716 -713 0
585 713 714 -732 -722 -720 -718 -716 0
557 561 565 584 -732 -722 -720 -718 -715 0
557 561 -732 -722 -720 -718 -715 -584 -565 0
557 584 -732 -722 -720 -718 -715 -565 -561 0
557 565 -732 -722 -720 -718 -715 -584 -561 0
561 584 -732 -722 -720 -718 -715 -565 -557 0
561 565 -732 -722 -720 -718 -715 -584 -557 0
565 584 -732 -722 -720 -718 -715 -561 -557 0
-732 -722 -720 -718 -715 -584 -565 -561 -557 0
715 716 -732 -722 -720 -718 0
711 712 -732 -722 -720 -717 0
-732 -722 -720 -717 -711 -706 -583 -559 -555 0
-732 -722 -720 -717 -711 -706 -583 -582 -559 0
-732 -722 -720 -717 -711 -706 -583 -582 -555 0
555 559 583 -732 -722 -720 -717 -711 -706 -704 0
559 582 583 -732 -722 -720 -717 -711 -706 -704 0
555 582 583 -732 -722 -720 -717 -711 -706 -704 0
582 583 -732 -722 -720 -717 -711 -706 -704 0
559 583 -732 -722 -720 -717 -711 -706 -703 0
555 583 -732 -722 -720 -717 -711 -706 -703 0
583 703 704 -732 -722 -720 -717 -711 -706 0
555 559 563 582 -732 -722 -720 -717 -711 -705 0
555 559 -732 -722 -720 -717 -711 -705 -582 -563 0
555 582 -732 -722 -720 -717 -711 -705 -563 -559 0
555 563 -732 -722 -720 -717 -711 -705 -582 -559 0
559 582 -732 -722 -720 -717 -711 -705 -563 -555 0
559 563 -732 -722 -720 -717 -711 -705 -582 -555 0
563 582 -732 -722 -720 -717 -711 -705 -559 -555 0
-732 -722 -720 -717 -711 -705 -582 -563 -559 -555 0
705 706 -732 -722 -720 -717 -711 0
709 710 -732 -722 -720 -717 -712 0
-732 -722 -720 -717 -712 -709 -583 -564 -560 -556 0
564 583 -732 -722 -720 -717 -712 -709 -560 -556 0
560 564 -732 -722 -720 -717 -712 -709 -583 -556 0
560 583 -732 -722 -720 -717 -712 -709 -564 -556 0
556 564 -732 -722 -720 -717 -712 -709 -583 -560 0
556 583 -732 -722 -720 -717 -712 -709 -564 -560 0
556 560 -732 -722 -720 -717 -712 -709 -583 -564 0
556 560 564 583 -732 -722 -720 -717 -712 -709 0
584 707 708 -732 -722 -720 -717 -712 -710 0
556 584 -732 -722 -720 -717 -712 -710 -707 0
560 584 -732 -722 -720 -717 -712 -710 -707 0
583 584 -732 -722 -720 -717 -712 -710 -708 0
556 583 584 -732 -722 -720 -717 -712 -710 -708 0
560 583 584 -732 -722 -720 -717 -712 -710 -708 0
556 560 584 -732 -722 -720 -717 -712 -710 -708 0
-732 -722 -720 -717 -712 -710 -584 -583 -556 0
-732 -722 -720 -717 -712 -710 -584 -583 -560 0
-732 -722 -720 -717 -712 -710 -584 -560 -556 0
721 722 -732 0
589 -732 -729 -598 0
589 -732 -729 -597 0
597 598 -732 -729 -589 0
598 -732 -729 -596 -588 0
588 -732 -729 -598 0
596 -732 -729 -598 0
597 -732 -729 -561 -557 0
561 -732 -729 -597 0
557 -732 -729 -597 0
565 588 -732 -729 -596 0
565 596 -732 -729 -588 0
-732 -729 -596 -588 -565 0
588 596 -732 -729 -565 0
561 596 -732 -729 -557 0
557 596 -732 -729 -561 0
-732 -729 -596 -561 -557 0
557 561 -732 -729 -596 0
588 -732 -729 -595 0
588 -732 -729 -594 0
594 595 -732 -729 -588 0
595 -732 -729 -593 -587 0
587 -732 -729 -595 0
593 -732 -729 -595 0
594 -732 -729 -560 -556 0
560 -732 -729 -594 0
556 -732 -729 -594 0
564 587 -732 -729 -593 0
564 593 -732 -729 -587 0
-732 -729 -593 -587 -564 0
587 593 -732 -729 -564 0
560 593 -732 -729 -556 0
556 593 -732 -729 -560 0
-732 -729 -593 -560 -556 0
556 560 -732 -729 -593 0
587 -732 -729 -592 0
587 -732 -729 -591 0
591 592 -732 -729 -587 0
592 -732 -729 -590 -586 0
586 -732 -729 -592 0
590 -732 -729 -592 0
591 -732 -729 -559 -555 0
559 -732 -729 -591 0
555 -732 -729 -591 0
563 586 -732 -729 -590 0
563 590 -732 -729 -586 0
-732 -729 -590 -586 -563 0
586 590 -732 -729 -563 0
559 590 -732 -729 -555 0
555 590 -732 -729 -559 0
-732 -729 -590 -559 -555 0
555 559 -732 -729 -590 0
589 -732 -729 -568 0
568 -732 -729 -589 0
586 -732 -729 -567 0
567 -732 -729 -586 0
602 -732 -730 -601 -557 0
602 -732 -730 -601 -561 0
602 -732 -730 -561 -557 0
727 728 -732 -730 -602 0
557 -732 -730 -727 -602 0
561 -732 -730 -727 -602 0
601 -732 -730 -728 -602 0
557 601 -732 -730 -728 -602 0
561 601 -732 -730 -728 -602 0
557 561 -732 -730 -728 -602 0
557 561 601 -732 -730 -565 0
557 561 565 -732 -730 -601 0
557 565 601 -732 -730 -561 0
557 -732 -730 -601 -565 -561 0
561 565 601 -732 -730 -557 0
561 -732 -730 -601 -565 -557 0
601 -732 -730 -565 -561 -557 0
565 -732 -730 -601 -561 -557 0
601 -732 -730 -600 -556 0
601 -732 -730 -600 -560 0
601 -732 -730 -560 -556 0
725 726 -732 -730 -601 0
556 -732 -730 -725 -601 0
560 -732 -730 -725 -601 0
600 -732 -730 -726 -601 0
556 600 -732 -730 -726 -601 0
560 600 -732 -730 -726 -601 0
556 560 -732 -730 -726 -601 0
556 560 600 -732 -730 -564 0
556 560 564 -732 -730 -600 0
556 564 600 -732 -730 -560 0
556 -732 -730 -600 -564 -560 0
560 564 600 -732 -730 -556 0
560 -732 -730 -600 -564 -556 0
600 -732 -730 -564 -560 -556 0
564 -732 -730 -600 -560 -556 0
600 -732 -730 -599 -555 0
600 -732 -730 -599 -559 0
600 -732 -730 -559 -555 0
723 724 -732 -730 -600 0
555 -732 -730 -723 -600 0
559 -732 -730 -723 -600 0
599 -732 -730 -724 -600 0
555 599 -732 -730 -724 -600 0
559 599 -732 -730 -724 -600 0
555 559 -732 -730 -724 -600 0
555 559 599 -732 -730 -563 0
555 559 563 -732 -730 -599 0
555 563 599 -732 -730 -559 0
555 -732 -730 -599 -563 -559 0
559 563 599 -732 -730 -555 0
559 -732 -730 -599 -563 -555 0
599 -732 -730 -563 -559 -555 0
563 -732 -730 -599 -559 -555 0
602 -732 -730 -568 0
568 -732 -730 -602 0
599 -732 -730 -567 0
567 -732 -730 -599 0
729 730 -732 0
671 672 -731 0
495 -731 -671 -630 -623 -616 -613 -611 -609 -608 -491 -485 0
491 -731 -671 -630 -623 -616 -613 -611 -609 -608 -495 -485 0
485 491 495 -731 -671 -630 -623 -616 -613 -611 -609 -608 0
485 -731 -671 -630 -623 -616 -613 -611 -609 -608 -495 -491 0
495 -731 -671 -630 -623 -616 -613 -611 -609 -607 -481 -477 0
477 481 495 -731 -671 -630 -623 -616 -613 -611 -609 -607 0
481 -731 -671 -630 -623 -616 -613 -611 -609 -607 -495 -477 0
477 -731 -671 -630 -623 -616 -613 -611 -609 -607 -495 -481 0
607 608 -731 -671 -630 -623 -616 -613 -611 -609 0
481 496 -731 -671 -630 -623 -616 -613 -611 -610 0
477 496 -731 -671 -630 -623 -616 -613 -611 -610 0
-731 -671 -630 -623 -616 -613 -611 -610 -496 -481 -477 0
609 610 -731 -671 -630 -623 -616 -613 -611 0
491 497 -731 -671 -630 -623 -616 -613 -612 0
495 497 -731 -671 -630 -623 -616 -613 -612 0
-731 -671 -630 -623 -616 -613 -612 -497 -495 -491 0
611 612 -731 -671 -630 -623 -616 -613 0
492 496 497 -731 -671 -630 -623 -616 -614 0
-731 -671 -630 -623 -616 -614 -497 -492 0
-731 -671 -630 -623 -616 -614 -496 -492 0
613 614 -731 -671 -630 -623 -616 0
489 490 491 492 -731 -671 -630 -623 -615 0
489 491 -731 -671 -630 -623 -615 -492 -490 0
490 492 -731 -671 -630 -623 -615 -491 -489 0
-731 -671 -630 -623 -615 -492 -491 -490 -489 0
615 616 -731 -671 -630 -623 0
621 622 -731 -671 -630 -624 0
-731 -671 -630 -624 -621 -499 -498 -490 -489 0
490 499 -731 -671 -630 -624 -621 -498 -489 0
489 498 -731 -671 -630 -624 -621 -499 -490 0
489 490 498 499 -731 -671 -630 -624 -621 0
619 620 -731 -671 -630 -624 -622 0
-731 -671 -630 -624 -622 -619 -498 -485 -481 -477 0
485 498 -731 -671 -630 -624 -622 -619 -481 -477 0
481 485 -731 -671 -630 -624 -622 -619 -498 -477 0
481 498 -731 -671 -630 -624 -622 -619 -485 -477 0
477 485 -731 -671 -630 -624 -622 -619 -498 -481 0
477 498 -731 -671 -630 -624 -622 -619 -485 -481 0
477 481 -731 -671 -630 -624 -622 -619 -498 -485 0
477 481 485 498 -731 -671 -630 -624 -622 -619 0
499 617 618 -731 -671 -630 -624 -622 -620 0
477 499 -731 -671 -630 -624 -622 -620 -617 0
481 499 -731 -671 -630 -624 -622 -620 -617 0
498 499 -731 -671 -630 -624 -622 -620 -618 0
477 498 499 -731 -671 -630 -624 -622 -620 -618 0
481 498 499 -731 -671 -630 -624 -622 -620 -618 0
477 481 499 -731 -671 -630 -624 -622 -620 -618 0
-731 -671 -630 -624 -622 -620 -499 -498 -477 0
-731 -671 -630 -624 -622 -620 -499 -498 -481 0
-731 -671 -630 -624 -622 -620 -499 -481 -477 0
623 624 -731 -671 -630 0
503 -731 -671 -630 -627 -508 0
503 -731 -671 -630 -627 -507 0
507 508 -731 -671 -630 -627 -503 0
508 -731 -671 -630 -627 -506 -502 0
502 -731 -671 -630 -627 -508 0
506 -731 -671 -630 -627 -508 0
507 -731 -671 -630 -627 -481 -477 0
481 -731 -671 -630 -627 -507 0
477 -731 -671 -630 -627 -507 0
485 502 -731 -671 -630 -627 -506 0
485 506 -731 -671 -630 -627 -502 0
-731 -671 -630 -627 -506 -502 -485 0
502 506 -731 -671 -630 -627 -485 0
481 506 -731 -671 -630 -627 -477 0
477 506 -731 -671 -630 -627 -481 0
-731 -671 -630 -627 -506 -481 -477 0
477 481 -731 -671 -630 -627 -506 0
503 -731 -671 -630 -627 -490 0
490 -731 -671 -630 -627 -503 0
502 -731 -671 -630 -627 -489 0
489 -731 -671 -630 -627 -502 0
510 -731 -671 -630 -628 -509 -477 0
510 -731 -671 -630 -628 -509 -481 0
510 -731 -671 -630 -628 -481 -477 0
625 626 -731 -671 -630 -628 -510 0
477 -731 -671 -630 -628 -625 -510 0
481 -731 -671 -630 -628 -625 -510 0
509 -731 -671 -630 -628 -626 -510 0
477 509 -731 -671 -630 -628 -626 -510 0
481 509 -731 -671 -630 -628 -626 -510 0
477 481 -731 -671 -630 -628 -626 -510 0
477 481 509 -731 -671 -630 -628 -485 0
477 481 485 -731 -671 -630 -628 -509 0
477 485 509 -731 -671 -630 -628 -481 0
477 -731 -671 -630 -628 -509 -485 -481 0
481 485 509 -731 -671 -630 -628 -477 0
481 -731 -671 -630 -628 -509 -485 -477 0
509 -731 -671 -630 -628 -485 -481 -477 0
485 -731 -671 -630 -628 -509 -481 -477 0
510 -731 -671 -630 -628 -490 0
490 -731 -671 -630 -628 -510 0
509 -731 -671 -630 -628 -489 0
489 -731 -671 -630 -628 -509 0
627 628 -731 -671 -630 0
605 606 -731 -671 -629 0
459 -731 -671 -629 -606 -473 0
473 -731 -671 -629 -606 -459 0
460 -731 -671 -629 -606 -473 0
473 -731 -671 -629 -606 -460 0
459 -731 -671 -629 -605 -469 0
469 -731 -671 -629 -605 -459 0
460 -731 -671 -629 -605 -469 0
469 -731 -671 -629 -605 -460 0
603 604 -731 -671 -629 0
-731 -671 -629 -603 -461 -460 -459 0
459 460 461 -731 -671 -629 -603 0
459 460 465 -731 -671 -629 -604 0
-731 -671 -629 -604 -465 -460 -459 0
629 630 -731 -671 0
669 670 -731 -672 0
525 -731 -672 -670 -551 0
551 -731 -672 -670 -525 0
526 -731 -672 -670 -553 0
553 -731 -672 -670 -526 0
521 -731 -672 -670 -551 -517 -513 0
551 -731 -672 -670 -521 -517 -513 0
517 -731 -672 -670 -551 -521 -513 0
517 521 551 -731 -672 -670 -513 0
513 -731 -672 -670 -551 -521 -517 0
513 521 551 -731 -672 -670 -517 0
513 517 521 -731 -672 -670 -551 0
513 517 551 -731 -672 -670 -521 0
513 517 -731 -672 -670 -666 -552 0
517 551 -731 -672 -670 -666 -552 0
513 551 -731 -672 -670 -666 -552 0
551 -731 -672 -670 -666 -552 0
517 -731 -672 -670 -665 -552 0
513 -731 -672 -670 -665 -552 0
665 666 -731 -672 -670 -552 0
552 -731 -672 -670 -517 -513 0
552 -731 -672 -670 -551 -517 0
552 -731 -672 -670 -551 -513 0
522 -731 -672 -670 -552 -518 -514 0
552 -731 -672 -670 -522 -518 -514 0
518 -731 -672 -670 -552 -522 -514 0
518 522 552 -731 -672 -670 -514 0
514 -731 -672 -670 -552 -522 -518 0
514 522 552 -731 -672 -670 -518 0
514 518 522 -731 -672 -670 -552 0
514 518 552 -731 -672 -670 -522 0
514 518 -731 -672 -670 -668 -553 0
518 552 -731 -672 -670 -668 -553 0
514 552 -731 -672 -670 -668 -553 0
552 -731 -672 -670 -668 -553 0
518 -731 -672 -670 -667 -553 0
514 -731 -672 -670 -667 -553 0
667 668 -731 -672 -670 -553 0
553 -731 -672 -670 -518 -514 0
553 -731 -672 -670 -552 -518 0
553 -731 -672 -670 -552 -514 0
525 -731 -672 -669 -541 0
541 -731 -672 -669 -525 0
526 -731 -672 -669 -543 0
543 -731 -672 -669 -526 0
513 517 -731 -672 -669 -545 0
-731 -672 -669 -545 -517 -513 0
513 545 -731 -672 -669 -517 0
517 545 -731 -672 -669 -513 0
541 545 -731 -672 -669 -521 0
-731 -672 -669 -545 -541 -521 0
521 545 -731 -672 -669 -541 0
521 541 -731 -672 -669 -545 0
513 -731 -672 -669 -546 0
517 -731 -672 -669 -546 0
546 -731 -672 -669 -517 -513 0
545 -731 -672 -669 -547 0
541 -731 -672 -669 -547 0
547 -731 -672 -669 -545 -541 0
546 547 -731 -672 -669 -542 0
542 -731 -672 -669 -546 0
542 -731 -672 -669 -547 0
514 518 -731 -672 -669 -548 0
-731 -672 -669 -548 -518 -514 0
514 548 -731 -672 -669 -518 0
518 548 -731 -672 -669 -514 0
542 548 -731 -672 -669 -522 0
-731 -672 -669 -548 -542 -522 0
522 548 -731 -672 -669 -542 0
522 542 -731 -672 -669 -548 0
514 -731 -672 -669 -549 0
518 -731 -672 -669 -549 0
549 -731 -672 -669 -518 -514 0
548 -731 -672 -669 -550 0
542 -731 -672 -669 -550 0
550 -731 -672 -669 -548 -542 0
549 550 -731 -672 -669 -543 0
543 -731 -672 -669 -549 0
543 -731 -672 -669 -550 0
663 664 -731 -672 0
-731 -672 -664 -662 -660 -658 -539 -518 -514 0
-731 -672 -664 -662 -660 -658 -539 -538 -518 0
-731 -672 -664 -662 -660 -658 -539 -538 -514 0
514 518 539 -731 -672 -664 -662 -660 -658 -656 0
518 538 539 -731 -672 -664 -662 -660 -658 -656 0
514 538 539 -731 -672 -664 -662 -660 -658 -656 0
538 539 -731 -672 -664 -662 -660 -658 -656 0
518 539 -731 -672 -664 -662 -660 -658 -655 0
514 539 -731 -672 -664 -662 -660 -658 -655 0
539 655 656 -731 -672 -664 -662 -660 -658 0
514 518 522 538 -731 -672 -664 -662 -660 -657 0
514 518 -731 -672 -664 -662 -660 -657 -538 -522 0
514 538 -731 -672 -664 -662 -660 -657 -522 -518 0
514 522 -731 -672 -664 -662 -660 -657 -538 -518 0
518 538 -731 -672 -664 -662 -660 -657 -522 -514 0
518 522 -731 -672 -664 -662 -660 -657 -538 -514 0
522 538 -731 -672 -664 -662 -660 -657 -518 -514 0
-731 -672 -664 -662 -660 -657 -538 -522 -518 -514 0
657 658 -731 -672 -664 -662 -660 0
653 654 -731 -672 -664 -662 -659 0
-731 -672 -664 -662 -659 -653 -537 -521 -517 -513 0
521 537 -731 -672 -664 -662 -659 -653 -517 -513 0
517 521 -731 -672 -664 -662 -659 -653 -537 -513 0
517 537 -731 -672 -664 -662 -659 -653 -521 -513 0
513 521 -731 -672 -664 -662 -659 -653 -537 -517 0
513 537 -731 -672 -664 -662 -659 -653 -521 -517 0
513 517 -731 -672 -664 -662 -659 -653 -537 -521 0
513 517 521 537 -731 -672 -664 -662 -659 -653 0
538 651 652 -731 -672 -664 -662 -659 -654 0
513 538 -731 -672 -664 -662 -659 -654 -651 0
517 538 -731 -672 -664 -662 -659 -654 -651 0
537 538 -731 -672 -664 -662 -659 -654 -652 0
513 537 538 -731 -672 -664 -662 -659 -654 -652 0
517 537 538 -731 -672 -664 -662 -659 -654 -652 0
513 517 538 -731 -672 -664 -662 -659 -654 -652 0
-731 -672 -664 -662 -659 -654 -538 -537 -513 0
-731 -672 -664 -662 -659 -654 -538 -537 -517 0
-731 -672 -664 -662 -659 -654 -538 -517 -513 0
659 660 -731 -672 -664 -662 0
525 526 537 539 -731 -672 -664 -661 0
525 537 -731 -672 -664 -661 -539 -526 0
526 539 -731 -672 -664 -661 -537 -525 0
-731 -672 -664 -661 -539 -537 -526 -525 0
661 662 -731 -672 -664 0
649 650 -731 -672 -663 0
-731 -672 -663 -649 -529 -527 -526 -525 0
526 529 -731 -672 -663 -649 -527 -525 0
525 527 -731 -672 -663 -649 -529 -526 0
525 526 527 529 -731 -672 -663 -649 0
647 648 -731 -672 -663 -650 0
531 -731 -672 -663 -650 -647 -637 -635 -633 -632 -527 -521 0
527 -731 -672 -663 -650 -647 -637 -635 -633 -632 -531 -521 0
521 527 531 -731 -672 -663 -650 -647 -637 -635 -633 -632 0
521 -731 -672 -663 -650 -647 -637 -635 -633 -632 -531 -527 0
531 -731 -672 -663 -650 -647 -637 -635 -633 -631 -517 -513 0
513 517 531 -731 -672 -663 -650 -647 -637 -635 -633 -631 0
517 -731 -672 -663 -650 -647 -637 -635 -633 -631 -531 -513 0
513 -731 -672 -663 -650 -647 -637 -635 -633 -631 -531 -517 0
631 632 -731 -672 -663 -650 -647 -637 -635 -633 0
517 532 -731 -672 -663 -650 -647 -637 -635 -634 0
513 532 -731 -672 -663 -650 -647 -637 -635 -634 0
-731 -672 -663 -650 -647 -637 -635 -634 -532 -517 -513 0
633 634 -731 -672 -663 -650 -647 -637 -635 0
527 533 -731 -672 -663 -650 -647 -637 -636 0
531 533 -731 -672 -663 -650 -647 -637 -636 0
-731 -672 -663 -650 -647 -637 -636 -533 -531 -527 0
635 636 -731 -672 -663 -650 -647 -637 0
528 532 533 -731 -672 -663 -650 -647 -638 0
-731 -672 -663 -650 -647 -638 -533 -528 0
-731 -672 -663 -650 -647 -638 -532 -528 0
637 638 -731 -672 -663 -650 -647 0
645 646 -731 -672 -663 -650 -648 0
-731 -672 -663 -650 -648 -646 -535 -529 0
-731 -672 -663 -650 -648 -646 -536 -529 0
529 535 536 -731 -672 -663 -650 -648 -646 0
643 644 -731 -672 -663 -650 -648 -645 0
-731 -672 -663 -650 -648 -645 -644 -536 -534 -528 0
534 536 -731 -672 -663 -650 -648 -645 -644 0
528 536 -731 -672 -663 -650 -648 -645 -644 0
641 642 -731 -672 -663 -650 -648 -645 -643 0
-731 -672 -663 -650 -648 -645 -643 -642 -535 -518 -514 0
514 535 -731 -672 -663 -650 -648 -645 -643 -642 0
518 535 -731 -672 -663 -650 -648 -645 -643 -642 0
639 640 -731 -672 -663 -650 -648 -645 -643 -641 0
514 -731 -672 -663 -650 -648 -645 -643 -641 -639 -534 -518 0
518 -731 -672 -663 -650 -648 -645 -643 -641 -639 -534 -514 0
514 518 534 -731 -672 -663 -650 -648 -645 -643 -641 -639 0
534 -731 -672 -663 -650 -648 -645 -643 -641 -639 -518 -514 0
522 -731 -672 -663 -650 -648 -645 -643 -641 -640 -534 -528 0
522 528 534 -731 -672 -663 -650 -648 -645 -643 -641 -640 0
528 -731 -672 -663 -650 -648 -645 -643 -641 -640 -534 -522 0
534 -731 -672 -663 -650 -648 -645 -643 -641 -640 -528 -522 0
